Optimal - objective value 160.00000000
      6 z_0_0_0_6                1                       0
     16 z_0_0_1_5                1                       0
     65 z_0_2_1_4                1                    -2.5
    104 z_0_2_4_10               1                       0
    148 z_0_4_4_7                1                      -5
    168 z_0_7_1_8                1                       0
    212 z_1_0_1_3                1                       0
    240 z_1_0_4_3                1                       0
    295 z_1_3_4_6                1                      10
    329 z_1_6_2_10               1                       0
    359 z_1_7_0_7                1                       0
    365 z_1_7_1_5                1                       0
    403 z_2_0_0_5                1                       0
    416 z_2_0_1_7                1                      10
    472 z_2_4_2_8                1                       0
    487 z_2_4_4_3                1                    1.25
    508 z_2_6_1_5                1                       0
    520 z_2_6_2_6                1                       0
    547 z_2_7_0_0                1                       0
    559 z_2_7_1_4                1                       0
    610 z_3_1_1_6                1                      -5
    667 z_3_2_1_8                1                       0
    693 z_3_2_4_1                1                       0
    704 z_3_3_0_1                1                       0
    752 z_3_3_4_8                1                       0
    778 z_3_5_2_1                1                       0
    795 z_3_5_3_7                1                       0
    820 z_3_6_1_4                1                       0
    835 z_3_6_2_8                1                       0
    868 z_4_0_0_8                1                      -2
    875 z_4_0_1_4                1                       0
    929 z_4_1_1_8                1                       0
    981 z_4_2_1_5                1                       0
   1017 z_4_2_4_8                1                       5
   1020 z_4_3_0_0                1                       0
   1071 z_4_3_4_10               1                       0
   1098 z_4_4_2_10               1                       5
   1108 z_4_4_4_0                1                    1.25
   1120 z_4_7_0_1                1                       0
   1133 z_4_7_1_6                1                       0
   1169 z_5_0_0_4                1                       0
   1211 z_5_0_4_7                1                      -4
   1236 z_5_1_1_10               1                      -4
   1312 z_5_5_3_9                1                       6
   1339 z_5_6_1_8                1                       0
   1375 w_0_0                    1                      10
   1376 w_0_1                    1                       0
   1379 w_0_4                    1                      10
   1381 w_1_1                    1                      10
   1386 w_2_1                    1                      10
   1389 w_2_4                    1                       0
   1390 w_3_0                    1                      10
   1394 w_3_4                    1                       0
   1397 w_4_2                    1                       0
   1399 w_4_4                    1                      10
   1402 w_5_2                    1                      10
   1403 w_5_3                    1                      10
   1406 w_6_1                    1                      10
   1407 w_6_2                    1                      10
   1410 w_7_0                    1                      10
   1411 w_7_1                    1                      10
   1415 o_0_0_0                  1                       0
   1416 o_0_0_1     1.000000000001                       0
   1417 o_0_0_2                  1                       0
   1418 o_0_0_3                  1                       0
   1419 o_0_0_4                  1                       0
   1420 o_0_0_5                  1                       0
   1422 o_0_1_1    0.999999999997879                       0
   1423 o_0_1_2     0.999999999999                       0
   1424 o_0_1_3                  1                       0
   1425 o_0_1_4    0.9999999999995                       0
   1426 o_0_1_5    0.9999999999995                       0
   1440 o_0_4_1                  1                       0
   1441 o_0_4_2                  1                       0
   1442 o_0_4_3                  1                       0
   1451 o_1_1_0                  1                       0
   1452 o_1_1_1                  1                       0
   1453 o_1_1_2                  1                       0
   1454 o_1_1_3                  1                       0
   1455 o_1_1_4                  1                       0
   1456 o_1_1_5                  1                       0
   1483 o_2_1_2                  1                       0
   1484 o_2_1_3                  1                       0
   1485 o_2_1_4                  1                       0
   1486 o_2_1_5                  1                       0
   1500 o_2_4_1     0.999999999999                       0
   1501 o_2_4_2                  1                       0
   1502 o_2_4_3                  1                       0
   1503 o_2_4_4                  1                       0
   1504 o_2_4_5                  1                       0
   1505 o_3_0_0                  1                       0
   1506 o_3_0_1                  1                       0
   1529 o_3_4_0                  1                       0
   1530 o_3_4_1     1.000000000004                       0
   1531 o_3_4_2     1.000000000004                       0
   1532 o_3_4_3    0.999999999993501                       0
   1533 o_3_4_4    0.999999999993501                       0
   1534 o_3_4_5                  1                       0
   1549 o_4_2_2    0.99999999999975                       0
   1550 o_4_2_3    0.9999999999995                       0
   1551 o_4_2_4    0.99999999999975                       0
   1552 o_4_2_5    0.99999999999975                       0
   1559 o_4_4_0                  1                       0
   1560 o_4_4_1                  1                       0
   1561 o_4_4_2                  1                       0
   1562 o_4_4_3                  1                       0
   1578 o_5_2_1     1.000000000005                       0
   1584 o_5_3_1     1.000000000001                       0
   1585 o_5_3_2                  1                       0
   1586 o_5_3_3                  1                       0
   1587 o_5_3_4                  1                       0
   1603 o_6_1_2                  1                       0
   1604 o_6_1_3    0.999999999998021                       0
   1605 o_6_1_4    0.999999999998021                       0
   1606 o_6_1_5     1.000000000001                       0
   1607 o_6_2_0                  1                       0
   1608 o_6_2_1                  1                       0
   1609 o_6_2_2                  1                       0
   1610 o_6_2_3     0.999999999996                       0
   1611 o_6_2_4    1.00000000000198                       0
   1612 o_6_2_5                  1                       0
   1625 o_7_0_0     1.000000000002                       0
   1626 o_7_0_1     1.000000000001                       0
   1627 o_7_0_2                  1                       0
   1628 o_7_0_3     1.000000000002                       0
   1631 o_7_1_0                  1                       0
   1632 o_7_1_1     1.000000000001                       0
   1633 o_7_1_2     1.000000000001                       0
   1634 o_7_1_3                  1                       0
   1635 o_7_1_4                  1                       0
   1636 o_7_1_5                  1                       0
   1655 e_0_0_0                  1                       0
   1656 e_0_0_1     1.000000000001                       0
   1663 e_0_1_2                  1                       0
   1664 e_0_1_3                  1                       0
   1665 e_0_1_4                  1                       0
   1666 e_0_1_5                  1                       0
   1680 e_0_4_1                  1                       0
   1681 e_0_4_2                  1                       0
   1683 e_0_4_4                  1                       0
   1684 e_0_4_5                  1                       0
   1687 e_1_0_2                  1                       0
   1688 e_1_0_3                  1                       0
   1694 e_1_1_3     1.000000000001                       0
   1696 e_1_1_5                  1                       0
   1701 e_1_2_4                  1                       0
   1702 e_1_2_5     1.000000000008                       0
   1709 e_1_4_0                  1                       0
   1710 e_1_4_1                  1                       0
   1712 e_1_4_3                  1                       0
   1715 e_2_0_0    1.00000000000025                       0
   1720 e_2_0_5                  1                       0
   1722 e_2_1_1                  1                       0
   1723 e_2_1_2                  1                       0
   1725 e_2_1_4                  1                       0
   1726 e_2_1_5                  1                       0
   1727 e_2_2_0                  1                       0
   1728 e_2_2_1                  1                       0
   1729 e_2_2_2                  1                       0
   1730 e_2_2_3                  1                       0
   1742 e_2_4_3                  1                       0
   1746 e_3_0_1                  1                       0
   1751 e_3_1_0                  1                       0
   1752 e_3_1_1                  1                       0
   1753 e_3_1_2                  1                       0
   1754 e_3_1_3                  1                       0
   1755 e_3_1_4                  1                       0
   1758 e_3_2_1                  1                       0
   1759 e_3_2_2                  1                       0
   1760 e_3_2_3                  1                       0
   1764 e_3_3_1                  1                       0
   1765 e_3_3_2                  1                       0
   1770 e_3_4_1                  1                       0
   1771 e_3_4_2                  1                       0
   1772 e_3_4_3                  1                       0
   1775 e_4_0_0    0.99999999999975                       0
   1776 e_4_0_1    0.99999999999975                       0
   1777 e_4_0_2                  1                       0
   1778 e_4_0_3                  1                       0
   1781 e_4_1_0                  1                       0
   1782 e_4_1_1                  1                       0
   1783 e_4_1_2                  1                       0
   1784 e_4_1_3                  1                       0
   1785 e_4_1_4                  1                       0
   1786 e_4_1_5                  1                       0
   1791 e_4_2_4    1.00000000000055                       0
   1792 e_4_2_5     1.000000000001                       0
   1799 e_4_4_0                  1                       0
   1801 e_4_4_2     1.000000000003                       0
   1802 e_4_4_3     0.999999999999                       0
   1803 e_4_4_4                  1                       0
   1804 e_4_4_5                  1                       0
   1809 e_5_0_4                  1                       0
   1813 e_5_1_2                  1                       0
   1814 e_5_1_3    0.999999999998021                       0
   1815 e_5_1_4    0.999999999998021                       0
   1816 e_5_1_5                  1                       0
   1826 e_5_3_3                  1                       0
   1827 e_5_3_4                  1                       0
   1830 e_5_4_1                  1                       0
   1831 e_5_4_2                  1                       0
   1836 af_0_0_0    1.000000000001                       0
   1837 bf_0_0_1                 1                       0
   1838 af_0_0_1                 1                       0
   1839 bf_0_0_2                 1                       0
   1840 af_0_0_2                 1                       0
   1841 bf_0_0_3                 1                       0
   1842 af_0_0_3                 1                       0
   1843 bf_0_0_4                 1                       0
   1844 af_0_0_4    0.999999999999                       0
   1845 bf_0_0_5                 1                       0
   1848 af_0_1_0   0.999999999996879                       0
   1849 bf_0_1_1                 1                       0
   1850 af_0_1_1   0.9999999999995                       0
   1851 bf_0_1_2   0.999999999997879                       0
   1852 af_0_1_2   0.9999999999995                       0
   1853 bf_0_1_3                 1                       0
   1854 af_0_1_3   0.9999999999995                       0
   1855 bf_0_1_4                 1                       0
   1856 af_0_1_4                 1                       0
   1857 bf_0_1_5                 1                       0
   1884 af_0_4_0                 1                       0
   1886 af_0_4_1                 1                       0
   1887 bf_0_4_2                 1                       0
   1888 af_0_4_2                 1                       0
   1889 bf_0_4_3                 1                       0
   1891 bf_0_4_4    0.999999999999                       0
   1893 bf_0_4_5                 1                       0
   1908 af_1_1_0                 1                       0
   1909 bf_1_1_1                 1                       0
   1910 af_1_1_1                 1                       0
   1911 bf_1_1_2    0.999999999999                       0
   1912 af_1_1_2    1.000000000001                       0
   1913 bf_1_1_3                 1                       0
   1914 af_1_1_3                 1                       0
   1915 bf_1_1_4                 1                      -5
   1916 af_1_1_4                 1                       0
   1917 bf_1_1_5                 1                       0
   1968 af_2_1_0                 1                       0
   1970 af_2_1_1                 1                       0
   1972 af_2_1_2                 1                       0
   1973 bf_2_1_3                 1                       0
   1974 af_2_1_3                 1                       0
   1975 bf_2_1_4                 1                       0
   1976 af_2_1_4                 1                       0
   1977 bf_2_1_5                 1                       0
   2004 af_2_4_0                 1                       0
   2006 af_2_4_1                 1                       0
   2007 bf_2_4_2    1.000000000001                       0
   2008 af_2_4_2                 1                       0
   2009 bf_2_4_3                 1                       0
   2010 af_2_4_3                 1                       0
   2011 bf_2_4_4                 1                       0
   2012 af_2_4_4                 1                       0
   2013 bf_2_4_5                 1                       0
   2016 af_3_0_0                 1                       0
   2017 bf_3_0_1                 1                       0
   2019 bf_3_0_2                 1                       0
   2021 bf_3_0_3    0.999999999997                       0
   2023 bf_3_0_4    0.999999999996                       0
   2025 bf_3_0_5                 1                       0
   2064 af_3_4_0    1.000000000003                       0
   2065 bf_3_4_1                 1                       0
   2066 af_3_4_1                 1                       0
   2067 bf_3_4_2                 1                       0
   2068 af_3_4_2                 1                       0
   2069 bf_3_4_3    0.999999999999                       0
   2070 af_3_4_3    0.999999999999                       0
   2071 bf_3_4_4                 1                       0
   2072 af_3_4_4                 1                       0
   2073 bf_3_4_5   0.999999999993501                       0
   2100 af_4_2_0                 1                       0
   2102 af_4_2_1   0.99999999999975                       0
   2104 af_4_2_2   0.9999999999995                       0
   2105 bf_4_2_3    1.000000000001                       0
   2106 af_4_2_3   0.99999999999975                       0
   2107 bf_4_2_4                 1                       0
   2108 af_4_2_4                 1                       0
   2109 bf_4_2_5                 1                       0
   2124 af_4_4_0                 1                       0
   2125 bf_4_4_1                 1                       0
   2126 af_4_4_1    0.999999999999                       0
   2127 bf_4_4_2                 1                       0
   2128 af_4_4_2                 1                       0
   2129 bf_4_4_3    0.999999999999                       0
   2131 bf_4_4_4    1.000000000001                       0
   2133 bf_4_4_5                 1                       0
   2160 af_5_2_0    1.000000000003                       0
   2163 bf_5_2_2    1.000000000004                       0
   2165 bf_5_2_3    1.000000000002                       0
   2167 bf_5_2_4    1.000000000001                       0
   2169 bf_5_2_5                 1                       0
   2172 af_5_3_0                 1                       0
   2174 af_5_3_1                 1                       0
   2175 bf_5_3_2                 1                       0
   2176 af_5_3_2    0.999999999999                       0
   2177 bf_5_3_3    0.999999999999                       0
   2178 af_5_3_3                 1                       0
   2179 bf_5_3_4                 1                       0
   2181 bf_5_3_5                 1                       0
   2208 af_6_1_0   0.999999999997021                       0
   2210 af_6_1_1   0.999999999997021                       0
   2212 af_6_1_2   0.999999999998021                       0
   2213 bf_6_1_3                 1                       0
   2214 af_6_1_3   0.999999999998021                       0
   2215 bf_6_1_4   0.999999999998021                       0
   2216 af_6_1_4                 1                       0
   2217 bf_6_1_5   0.999999999998021                       0
   2220 af_6_2_0                 1                       0
   2221 bf_6_2_1    0.999999999998                       0
   2222 af_6_2_1    0.999999999998                       0
   2223 bf_6_2_2                 1                       0
   2224 af_6_2_2                 1                       0
   2225 bf_6_2_3    0.999999999999                       0
   2226 af_6_2_3    0.999999999997                       0
   2227 bf_6_2_4    0.999999999997                       0
   2228 af_6_2_4    0.999999999999                       0
   2229 bf_6_2_5                 1                       0
   2256 af_7_0_0                 1                       0
   2257 bf_7_0_1    1.000000000001                       0
   2258 af_7_0_1    1.000000000001                       0
   2259 bf_7_0_2                 1                       0
   2260 af_7_0_2                 1                       0
   2261 bf_7_0_3    1.000000000002                       0
   2263 bf_7_0_4    1.000000000001                       0
   2265 bf_7_0_5    0.999999999999                       0
   2268 af_7_1_0    0.999999999999                       0
   2269 bf_7_1_1    1.000000000001                       0
   2270 af_7_1_1    0.999999999999                       0
   2271 bf_7_1_2                 1                       0
   2272 af_7_1_2                 1                       0
   2273 bf_7_1_3                 1                       0
   2274 af_7_1_3    0.999999999999                       0
   2275 bf_7_1_4                 1                       0
   2276 af_7_1_4                 1                       0
   2277 bf_7_1_5                 1                       0
